NAME : cvrp-A-G-200-20.1035.tour
COMMENT : Length = 1035
COMMENT : Found by LKH [Keld Helsgaun] Thu May 17 22:42:36 2018
TYPE : TOUR
DIMENSION : 31
TOUR_SECTION
1
27
19
22
17
26
3
6
13
12
14
7
16
29
10
4
15
9
2
20
24
23
25
28
30
8
5
11
31
21
18
-1
EOF
